SECTION Graph 
Nodes 21
Edges 28
E 1 11 413465
E 2 11 2354247
E 2 12 5123726
E 4 14 4641462
E 4 11 969230
E 12 13 110746
E 12 16 324546
E 13 14 2730467
E 13 17 324546
E 14 15 1792517
E 8 15 22484
E 6 16 1255554
E 6 12 1580100
E 16 17 110746
E 16 19 2321387
E 17 19 2210641
E 3 18 431823
E 3 9 1256823
E 3 15 1526309
E 9 18 825000
E 18 21 2390803
E 7 20 1332596
E 7 19 3408836
E 7 9 866203
E 5 20 3408836
E 5 19 1332596
E 20 21 1595300
E 10 21 1490005
END 

SECTION Terminals 
Terminals 10
TP 1 6
TP 2 7
TP 3 8
TP 4 9
TP 5 10
END 
